13 9 0 19 8 5 10 14 3 1 4 16 6 2 12 15 7 17 18 11
19 12 0 9 10 5 13 8 3 4 15 1 14 16 6 11 2 17 18 7
0 19 3 9 1 10 13 8 5 17 4 14 16 15 11 7 2 12 6 18
0 9 8 19 13 10 3 4 5 12 1 14 2 15 16 11 6 7 17 18
10 0 9 19 4 14 8 13 3 5 1 2 16 7 12 6 15 11 17 18
19 0 9 8 10 13 5 4 1 3 14 12 16 7 17 18 15 2 6 11
8 0 10 19 9 13 3 14 5 4 1 2 15 12 6 17 7 11 18 16
9 19 0 8 10 13 3 14 1 4 16 12 15 6 2 11 18 5 17 7
0 9 8 19 3 13 5 10 4 16 2 14 6 1 7 15 17 12 11 18
0 19 9 8 5 10 4 13 1 3 12 15 16 17 14 6 18 7 11 2